15
150
200

[Node]
0  0  0   0  0
16 0  0   0  0

[pickup]
1	504558778	23  12
2	503907150	28  15
3	504729849	33  9
4	505033597	33  11
5	502787864	34  8
6	504944047	35  13
7	504557490	45  14
8	504433520	47  12
9	502788559	47  13
10	503589812	48  8
11	504944097	52  8
12	504467511	55  9
13	505162674	66  10
14	504343657	69  9
15	505117949	71  12

[Speed 0]
  0.0 180.0 0.0 1
180.0 540.0 0.0 1.5
540.0 720.0 0.0 0.8
720.0 840.0 0.0 1.2

[Speed 1]
  0.0 180.0 0.0 1
180.0 540.0 0.0 1.5
540.0 720.0 0.0 0.8
720.0 840.0 0.0 1.2

[Speed 2]
  0.0 180.0 0.0 1
180.0 540.0 0.0 1.4
540.0 720.0 0.0 0.7
720.0 840.0 0.0 1.2

[Speed 3]
  0.0 180.0 0.0 1
180.0 540.0 0.0 1.5
540.0 720.0 0.0 0.8
720.0 840.0 0.0 1.2

[Speed 4]
  0.0 180.0 0.0 1.2
180.0 540.0 0.0 1.8
540.0 720.0 0.0 1
720.0 840.0 0.0 1.5

[speed choose matrix]
4 4 4 4 4 4 4 4 4 4 4 4 4 4 4 4 4
4 4 3 0 1 2 0 0 4 2 1 4 0 1 0 1 4
4 1 2 1 2 1 0 3 4 4 0 3 0 0 2 3 4
4 2 2 4 4 0 2 4 0 2 1 1 4 4 4 0 4
4 0 3 3 4 2 0 1 0 2 1 3 1 1 1 0 4
4 2 0 3 1 4 2 0 0 0 2 0 1 0 1 0 4
4 3 1 0 0 0 1 1 4 3 1 2 0 1 0 4 4
4 1 3 0 2 1 0 2 3 0 1 1 4 2 1 2 4
4 3 1 0 4 3 0 2 3 1 3 4 2 1 3 2 4
4 2 3 3 3 1 2 2 2 2 0 0 2 4 4 0 4
4 3 1 0 3 2 4 4 4 4 3 4 4 0 1 1 4
4 2 4 0 1 0 2 2 0 0 2 1 4 0 2 3 4
4 0 2 3 1 0 0 1 3 0 0 0 3 1 2 4 4
4 4 4 2 4 2 1 2 3 3 2 3 0 3 2 3 4
4 0 4 4 0 0 1 2 3 2 4 0 0 4 0 1 4
4 4 3 3 1 3 4 1 2 3 3 3 1 4 4 0 4
4 4 4 4 4 4 4 4 4 4 4 4 4 4 4 4 4

